2
53
0 3 13 4 5 6 7 8 17 16 15 14 22 23 24 25 26 34 35 43 33 42 32 41 50 51 52 44 53 62 70 69 68 77 76 67 66 65 64 55 56 57 58 48 39 38 47 37 28 29 20 19 9
47
0 1 10 18 27 36 45 46 54 63 73 74 72 81 82 90 91 92 93 83 75 84 85 94 95 96 97 98 89 88 86 87 78 79 80 71 61 60 59 49 40 31 30 21 12 11 2
